NAME : mEgtspf.pid7404.gtsp
TYPE : ATSP
DIMENSION : 55
EDGE_WEIGHT_TYPE : EXPLICIT
EDGE_WEIGHT_FORMAT : FULL_MATRIX
EDGE_WEIGHT_SECTION
999999 5368709 5368709 5368709 5368709 5368709 5368709 5368709 5368709 5368709 5368709 5368709 5368709 5368709 5368709 5368811 5368810 5368811 5368812 5368860 5368861 5368860 5368859 5368769 5368768 5368769 5368770 5368766 5368767 5368766 5368765 5368842 5368843 5368844 5368843 5368779 5368778 5368777 5368778 5368846 5368847 5368848 5368847 5368822 5368823 5368824 5368823 5368739 5368738 5368739 5368740 5368843 5368844 5368845 5368844 
5368709 999999 5368709 5368709 5368709 5368709 5368709 5368709 5368709 5368709 5368709 5368709 5368709 5368709 5368709 5368741 5368740 5368741 5368742 5368740 5368741 5368740 5368739 5368779 5368778 5368779 5368780 5368830 5368831 5368830 5368829 5368722 5368723 5368724 5368723 5368765 5368766 5368767 5368766 5368726 5368727 5368728 5368727 5368732 5368733 5368734 5368733 5368805 5368806 5368805 5368804 5368723 5368724 5368725 5368724 
5368709 5368709 999999 5368709 5368709 5368709 5368709 5368709 5368709 5368709 5368709 5368709 5368709 5368709 5368709 5368735 5368734 5368735 5368736 5368764 5368765 5368764 5368763 5368773 5368772 5368773 5368774 5368824 5368825 5368824 5368823 5368746 5368747 5368748 5368747 5368759 5368760 5368761 5368760 5368750 5368751 5368752 5368751 5368718 5368717 5368716 5368717 5368799 5368800 5368799 5368798 5368747 5368748 5368749 5368748 
5368709 5368709 5368709 999999 5368709 5368709 5368709 5368709 5368709 5368709 5368709 5368709 5368709 5368709 5368709 5368792 5368791 5368792 5368793 5368841 5368842 5368841 5368840 5368750 5368749 5368750 5368751 5368741 5368742 5368741 5368740 5368823 5368824 5368825 5368824 5368760 5368759 5368758 5368759 5368827 5368828 5368829 5368828 5368803 5368804 5368805 5368804 5368724 5368725 5368724 5368723 5368824 5368825 5368826 5368825 
5368709 5368709 5368709 5368709 999999 5368709 5368709 5368709 5368709 5368709 5368709 5368709 5368709 5368709 5368709 5368825 5368824 5368825 5368826 5368874 5368875 5368874 5368873 5368783 5368782 5368783 5368784 5368728 5368727 5368728 5368729 5368856 5368857 5368858 5368857 5368793 5368792 5368791 5368792 5368860 5368861 5368862 5368861 5368836 5368837 5368838 5368837 5368757 5368758 5368757 5368756 5368857 5368858 5368859 5368858 
5368709 5368709 5368709 5368709 5368709 999999 5368709 5368709 5368709 5368709 5368709 5368709 5368709 5368709 5368709 5368804 5368803 5368804 5368805 5368853 5368854 5368853 5368852 5368762 5368761 5368762 5368763 5368739 5368740 5368739 5368738 5368835 5368836 5368837 5368836 5368772 5368771 5368770 5368771 5368839 5368840 5368841 5368840 5368815 5368816 5368817 5368816 5368736 5368737 5368736 5368735 5368836 5368837 5368838 5368837 
5368709 5368709 5368709 5368709 5368709 5368709 999999 5368709 5368709 5368709 5368709 5368709 5368709 5368709 5368709 5368737 5368736 5368737 5368738 5368766 5368767 5368766 5368765 5368775 5368774 5368775 5368776 5368826 5368827 5368826 5368825 5368748 5368749 5368750 5368749 5368761 5368762 5368763 5368762 5368752 5368753 5368754 5368753 5368720 5368719 5368718 5368719 5368801 5368802 5368801 5368800 5368749 5368750 5368751 5368750 
5368709 5368709 5368709 5368709 5368709 5368709 5368709 999999 5368709 5368709 5368709 5368709 5368709 5368709 5368709 5368829 5368828 5368829 5368830 5368878 5368879 5368878 5368877 5368787 5368786 5368787 5368788 5368732 5368731 5368732 5368733 5368860 5368861 5368862 5368861 5368797 5368796 5368795 5368796 5368864 5368865 5368866 5368865 5368840 5368841 5368842 5368841 5368761 5368762 5368761 5368760 5368861 5368862 5368863 5368862 
5368709 5368709 5368709 5368709 5368709 5368709 5368709 5368709 999999 5368709 5368709 5368709 5368709 5368709 5368709 5368785 5368784 5368785 5368786 5368834 5368835 5368834 5368833 5368743 5368742 5368743 5368744 5368740 5368741 5368740 5368739 5368816 5368817 5368818 5368817 5368753 5368752 5368751 5368752 5368820 5368821 5368822 5368821 5368796 5368797 5368798 5368797 5368713 5368712 5368713 5368714 5368817 5368818 5368819 5368818 
5368709 5368709 5368709 5368709 5368709 5368709 5368709 5368709 5368709 999999 5368709 5368709 5368709 5368709 5368709 5368819 5368818 5368819 5368820 5368868 5368869 5368868 5368867 5368777 5368776 5368777 5368778 5368774 5368775 5368774 5368773 5368850 5368851 5368852 5368851 5368787 5368786 5368785 5368786 5368854 5368855 5368856 5368855 5368830 5368831 5368832 5368831 5368747 5368746 5368747 5368748 5368851 5368852 5368853 5368852 
5368709 5368709 5368709 5368709 5368709 5368709 5368709 5368709 5368709 5368709 999999 5368709 5368709 5368709 5368709 5368801 5368800 5368801 5368802 5368850 5368851 5368850 5368849 5368759 5368758 5368759 5368760 5368756 5368757 5368756 5368755 5368832 5368833 5368834 5368833 5368769 5368768 5368767 5368768 5368836 5368837 5368838 5368837 5368812 5368813 5368814 5368813 5368729 5368728 5368729 5368730 5368833 5368834 5368835 5368834 
5368709 5368709 5368709 5368709 5368709 5368709 5368709 5368709 5368709 5368709 5368709 999999 5368709 5368709 5368709 5368802 5368801 5368802 5368803 5368851 5368852 5368851 5368850 5368760 5368759 5368760 5368761 5368751 5368752 5368751 5368750 5368833 5368834 5368835 5368834 5368770 5368769 5368768 5368769 5368837 5368838 5368839 5368838 5368813 5368814 5368815 5368814 5368734 5368735 5368734 5368733 5368834 5368835 5368836 5368835 
5368709 5368709 5368709 5368709 5368709 5368709 5368709 5368709 5368709 5368709 5368709 5368709 999999 5368709 5368709 5368727 5368726 5368727 5368728 5368752 5368753 5368752 5368751 5368765 5368764 5368765 5368766 5368816 5368817 5368816 5368815 5368734 5368735 5368736 5368735 5368751 5368752 5368753 5368752 5368738 5368739 5368740 5368739 5368718 5368719 5368720 5368719 5368791 5368792 5368791 5368790 5368735 5368736 5368737 5368736 
5368709 5368709 5368709 5368709 5368709 5368709 5368709 5368709 5368709 5368709 5368709 5368709 5368709 999999 5368709 5368791 5368790 5368791 5368792 5368840 5368841 5368840 5368839 5368749 5368748 5368749 5368750 5368728 5368729 5368728 5368727 5368822 5368823 5368824 5368823 5368759 5368758 5368757 5368758 5368826 5368827 5368828 5368827 5368802 5368803 5368804 5368803 5368723 5368724 5368723 5368722 5368823 5368824 5368825 5368824 
5368709 5368709 5368709 5368709 5368709 5368709 5368709 5368709 5368709 5368709 5368709 5368709 5368709 5368709 999999 5368754 5368753 5368754 5368755 5368725 5368726 5368725 5368724 5368792 5368791 5368792 5368793 5368843 5368844 5368843 5368842 5368725 5368726 5368727 5368726 5368778 5368779 5368780 5368779 5368727 5368728 5368729 5368728 5368745 5368746 5368747 5368746 5368818 5368819 5368818 5368817 5368724 5368725 5368726 5368725 
5368709 5368709 5368709 5368709 5368709 5368709 5368709 5368709 5368709 5368709 5368709 5368709 5368709 5368709 5368709 999999 0 10737418 10737418 5368769 5368770 5368769 5368768 5368758 5368757 5368758 5368759 5368809 5368810 5368809 5368808 5368751 5368752 5368753 5368752 5368744 5368745 5368746 5368745 5368755 5368756 5368757 5368756 5368731 5368732 5368733 5368732 5368784 5368785 5368784 5368783 5368752 5368753 5368754 5368753 
5368709 5368709 5368709 5368709 5368709 5368709 5368709 5368709 5368709 5368709 5368709 5368709 5368709 5368709 5368709 10737418 999999 0 10737418 5368768 5368769 5368768 5368767 5368757 5368756 5368757 5368758 5368808 5368809 5368808 5368807 5368750 5368751 5368752 5368751 5368743 5368744 5368745 5368744 5368754 5368755 5368756 5368755 5368730 5368731 5368732 5368731 5368783 5368784 5368783 5368782 5368751 5368752 5368753 5368752 
5368709 5368709 5368709 5368709 5368709 5368709 5368709 5368709 5368709 5368709 5368709 5368709 5368709 5368709 5368709 10737418 10737418 999999 0 5368767 5368768 5368767 5368766 5368756 5368755 5368756 5368757 5368807 5368808 5368807 5368806 5368749 5368750 5368751 5368750 5368742 5368743 5368744 5368743 5368753 5368754 5368755 5368754 5368729 5368730 5368731 5368730 5368782 5368783 5368782 5368781 5368750 5368751 5368752 5368751 
5368709 5368709 5368709 5368709 5368709 5368709 5368709 5368709 5368709 5368709 5368709 5368709 5368709 5368709 5368709 0 10737418 10737418 999999 5368768 5368769 5368768 5368767 5368757 5368756 5368757 5368758 5368808 5368809 5368808 5368807 5368750 5368751 5368752 5368751 5368743 5368744 5368745 5368744 5368754 5368755 5368756 5368755 5368730 5368731 5368732 5368731 5368783 5368784 5368783 5368782 5368751 5368752 5368753 5368752 
5368709 5368709 5368709 5368709 5368709 5368709 5368709 5368709 5368709 5368709 5368709 5368709 5368709 5368709 5368709 5368767 5368766 5368767 5368768 999999 0 10737418 10737418 5368805 5368804 5368805 5368806 5368856 5368857 5368856 5368855 5368738 5368739 5368740 5368739 5368791 5368792 5368793 5368792 5368740 5368741 5368742 5368741 5368758 5368759 5368760 5368759 5368831 5368832 5368831 5368830 5368737 5368738 5368739 5368738 
5368709 5368709 5368709 5368709 5368709 5368709 5368709 5368709 5368709 5368709 5368709 5368709 5368709 5368709 5368709 5368768 5368767 5368768 5368769 10737418 999999 0 10737418 5368806 5368805 5368806 5368807 5368857 5368858 5368857 5368856 5368739 5368740 5368741 5368740 5368792 5368793 5368794 5368793 5368741 5368742 5368743 5368742 5368759 5368760 5368761 5368760 5368832 5368833 5368832 5368831 5368738 5368739 5368740 5368739 
5368709 5368709 5368709 5368709 5368709 5368709 5368709 5368709 5368709 5368709 5368709 5368709 5368709 5368709 5368709 5368769 5368768 5368769 5368770 10737418 10737418 999999 0 5368807 5368806 5368807 5368808 5368858 5368859 5368858 5368857 5368740 5368741 5368742 5368741 5368793 5368794 5368795 5368794 5368742 5368743 5368744 5368743 5368760 5368761 5368762 5368761 5368833 5368834 5368833 5368832 5368739 5368740 5368741 5368740 
5368709 5368709 5368709 5368709 5368709 5368709 5368709 5368709 5368709 5368709 5368709 5368709 5368709 5368709 5368709 5368768 5368767 5368768 5368769 0 10737418 10737418 999999 5368806 5368805 5368806 5368807 5368857 5368858 5368857 5368856 5368739 5368740 5368741 5368740 5368792 5368793 5368794 5368793 5368741 5368742 5368743 5368742 5368759 5368760 5368761 5368760 5368832 5368833 5368832 5368831 5368738 5368739 5368740 5368739 
5368709 5368709 5368709 5368709 5368709 5368709 5368709 5368709 5368709 5368709 5368709 5368709 5368709 5368709 5368709 5368758 5368757 5368758 5368759 5368807 5368808 5368807 5368806 999999 0 10737418 10737418 5368767 5368768 5368767 5368766 5368789 5368790 5368791 5368790 5368726 5368725 5368724 5368725 5368793 5368794 5368795 5368794 5368769 5368770 5368771 5368770 5368742 5368743 5368742 5368741 5368790 5368791 5368792 5368791 
5368709 5368709 5368709 5368709 5368709 5368709 5368709 5368709 5368709 5368709 5368709 5368709 5368709 5368709 5368709 5368757 5368756 5368757 5368758 5368806 5368807 5368806 5368805 10737418 999999 0 10737418 5368766 5368767 5368766 5368765 5368788 5368789 5368790 5368789 5368725 5368724 5368723 5368724 5368792 5368793 5368794 5368793 5368768 5368769 5368770 5368769 5368741 5368742 5368741 5368740 5368789 5368790 5368791 5368790 
5368709 5368709 5368709 5368709 5368709 5368709 5368709 5368709 5368709 5368709 5368709 5368709 5368709 5368709 5368709 5368756 5368755 5368756 5368757 5368805 5368806 5368805 5368804 10737418 10737418 999999 0 5368765 5368766 5368765 5368764 5368787 5368788 5368789 5368788 5368724 5368723 5368722 5368723 5368791 5368792 5368793 5368792 5368767 5368768 5368769 5368768 5368740 5368741 5368740 5368739 5368788 5368789 5368790 5368789 
5368709 5368709 5368709 5368709 5368709 5368709 5368709 5368709 5368709 5368709 5368709 5368709 5368709 5368709 5368709 5368757 5368756 5368757 5368758 5368806 5368807 5368806 5368805 0 10737418 10737418 999999 5368766 5368767 5368766 5368765 5368788 5368789 5368790 5368789 5368725 5368724 5368723 5368724 5368792 5368793 5368794 5368793 5368768 5368769 5368770 5368769 5368741 5368742 5368741 5368740 5368789 5368790 5368791 5368790 
5368709 5368709 5368709 5368709 5368709 5368709 5368709 5368709 5368709 5368709 5368709 5368709 5368709 5368709 5368709 5368807 5368806 5368807 5368808 5368856 5368857 5368856 5368855 5368765 5368764 5368765 5368766 999999 0 10737418 10737418 5368838 5368839 5368840 5368839 5368775 5368774 5368773 5368774 5368842 5368843 5368844 5368843 5368818 5368819 5368820 5368819 5368739 5368740 5368739 5368738 5368839 5368840 5368841 5368840 
5368709 5368709 5368709 5368709 5368709 5368709 5368709 5368709 5368709 5368709 5368709 5368709 5368709 5368709 5368709 5368808 5368807 5368808 5368809 5368857 5368858 5368857 5368856 5368766 5368765 5368766 5368767 10737418 999999 0 10737418 5368839 5368840 5368841 5368840 5368776 5368775 5368774 5368775 5368843 5368844 5368845 5368844 5368819 5368820 5368821 5368820 5368740 5368741 5368740 5368739 5368840 5368841 5368842 5368841 
5368709 5368709 5368709 5368709 5368709 5368709 5368709 5368709 5368709 5368709 5368709 5368709 5368709 5368709 5368709 5368809 5368808 5368809 5368810 5368858 5368859 5368858 5368857 5368767 5368766 5368767 5368768 10737418 10737418 999999 0 5368840 5368841 5368842 5368841 5368777 5368776 5368775 5368776 5368844 5368845 5368846 5368845 5368820 5368821 5368822 5368821 5368741 5368742 5368741 5368740 5368841 5368842 5368843 5368842 
5368709 5368709 5368709 5368709 5368709 5368709 5368709 5368709 5368709 5368709 5368709 5368709 5368709 5368709 5368709 5368808 5368807 5368808 5368809 5368857 5368858 5368857 5368856 5368766 5368765 5368766 5368767 0 10737418 10737418 999999 5368839 5368840 5368841 5368840 5368776 5368775 5368774 5368775 5368843 5368844 5368845 5368844 5368819 5368820 5368821 5368820 5368740 5368741 5368740 5368739 5368840 5368841 5368842 5368841 
5368709 5368709 5368709 5368709 5368709 5368709 5368709 5368709 5368709 5368709 5368709 5368709 5368709 5368709 5368709 5368751 5368750 5368751 5368752 5368740 5368741 5368740 5368739 5368789 5368788 5368789 5368790 5368840 5368841 5368840 5368839 999999 0 10737418 10737418 5368775 5368776 5368777 5368776 5368714 5368715 5368716 5368715 5368742 5368743 5368744 5368743 5368815 5368816 5368815 5368814 5368711 5368710 5368711 5368712 
5368709 5368709 5368709 5368709 5368709 5368709 5368709 5368709 5368709 5368709 5368709 5368709 5368709 5368709 5368709 5368750 5368749 5368750 5368751 5368739 5368740 5368739 5368738 5368788 5368787 5368788 5368789 5368839 5368840 5368839 5368838 10737418 999999 0 10737418 5368774 5368775 5368776 5368775 5368715 5368716 5368717 5368716 5368741 5368742 5368743 5368742 5368814 5368815 5368814 5368813 5368712 5368711 5368712 5368713 
5368709 5368709 5368709 5368709 5368709 5368709 5368709 5368709 5368709 5368709 5368709 5368709 5368709 5368709 5368709 5368751 5368750 5368751 5368752 5368740 5368741 5368740 5368739 5368789 5368788 5368789 5368790 5368840 5368841 5368840 5368839 10737418 10737418 999999 0 5368775 5368776 5368777 5368776 5368716 5368715 5368716 5368717 5368742 5368743 5368744 5368743 5368815 5368816 5368815 5368814 5368713 5368712 5368713 5368714 
5368709 5368709 5368709 5368709 5368709 5368709 5368709 5368709 5368709 5368709 5368709 5368709 5368709 5368709 5368709 5368752 5368751 5368752 5368753 5368741 5368742 5368741 5368740 5368790 5368789 5368790 5368791 5368841 5368842 5368841 5368840 0 10737418 10737418 999999 5368776 5368777 5368778 5368777 5368715 5368714 5368715 5368716 5368743 5368744 5368745 5368744 5368816 5368817 5368816 5368815 5368712 5368711 5368712 5368713 
5368709 5368709 5368709 5368709 5368709 5368709 5368709 5368709 5368709 5368709 5368709 5368709 5368709 5368709 5368709 5368744 5368743 5368744 5368745 5368793 5368794 5368793 5368792 5368724 5368723 5368724 5368725 5368775 5368776 5368775 5368774 5368775 5368776 5368777 5368776 999999 0 10737418 10737418 5368779 5368780 5368781 5368780 5368755 5368756 5368757 5368756 5368750 5368751 5368750 5368749 5368776 5368777 5368778 5368777 
5368709 5368709 5368709 5368709 5368709 5368709 5368709 5368709 5368709 5368709 5368709 5368709 5368709 5368709 5368709 5368743 5368742 5368743 5368744 5368792 5368793 5368792 5368791 5368725 5368724 5368725 5368726 5368776 5368777 5368776 5368775 5368774 5368775 5368776 5368775 10737418 999999 0 10737418 5368778 5368779 5368780 5368779 5368754 5368755 5368756 5368755 5368751 5368752 5368751 5368750 5368775 5368776 5368777 5368776 
5368709 5368709 5368709 5368709 5368709 5368709 5368709 5368709 5368709 5368709 5368709 5368709 5368709 5368709 5368709 5368744 5368743 5368744 5368745 5368793 5368794 5368793 5368792 5368724 5368723 5368724 5368725 5368775 5368776 5368775 5368774 5368775 5368776 5368777 5368776 10737418 10737418 999999 0 5368779 5368780 5368781 5368780 5368755 5368756 5368757 5368756 5368750 5368751 5368750 5368749 5368776 5368777 5368778 5368777 
5368709 5368709 5368709 5368709 5368709 5368709 5368709 5368709 5368709 5368709 5368709 5368709 5368709 5368709 5368709 5368745 5368744 5368745 5368746 5368794 5368795 5368794 5368793 5368723 5368722 5368723 5368724 5368774 5368775 5368774 5368773 5368776 5368777 5368778 5368777 0 10737418 10737418 999999 5368780 5368781 5368782 5368781 5368756 5368757 5368758 5368757 5368749 5368750 5368749 5368748 5368777 5368778 5368779 5368778 
5368709 5368709 5368709 5368709 5368709 5368709 5368709 5368709 5368709 5368709 5368709 5368709 5368709 5368709 5368709 5368755 5368754 5368755 5368756 5368742 5368743 5368742 5368741 5368793 5368792 5368793 5368794 5368844 5368845 5368844 5368843 5368716 5368717 5368716 5368715 5368779 5368780 5368781 5368780 999999 0 10737418 10737418 5368746 5368747 5368748 5368747 5368819 5368820 5368819 5368818 5368715 5368714 5368713 5368714 
5368709 5368709 5368709 5368709 5368709 5368709 5368709 5368709 5368709 5368709 5368709 5368709 5368709 5368709 5368709 5368754 5368753 5368754 5368755 5368741 5368742 5368741 5368740 5368792 5368791 5368792 5368793 5368843 5368844 5368843 5368842 5368715 5368716 5368715 5368714 5368778 5368779 5368780 5368779 10737418 999999 0 10737418 5368745 5368746 5368747 5368746 5368818 5368819 5368818 5368817 5368714 5368713 5368712 5368713 
5368709 5368709 5368709 5368709 5368709 5368709 5368709 5368709 5368709 5368709 5368709 5368709 5368709 5368709 5368709 5368755 5368754 5368755 5368756 5368742 5368743 5368742 5368741 5368793 5368792 5368793 5368794 5368844 5368845 5368844 5368843 5368716 5368715 5368714 5368715 5368779 5368780 5368781 5368780 10737418 10737418 999999 0 5368746 5368747 5368748 5368747 5368819 5368820 5368819 5368818 5368715 5368714 5368713 5368714 
5368709 5368709 5368709 5368709 5368709 5368709 5368709 5368709 5368709 5368709 5368709 5368709 5368709 5368709 5368709 5368756 5368755 5368756 5368757 5368743 5368744 5368743 5368742 5368794 5368793 5368794 5368795 5368845 5368846 5368845 5368844 5368717 5368716 5368715 5368716 5368780 5368781 5368782 5368781 0 10737418 10737418 999999 5368747 5368748 5368749 5368748 5368820 5368821 5368820 5368819 5368716 5368715 5368714 5368715 
5368709 5368709 5368709 5368709 5368709 5368709 5368709 5368709 5368709 5368709 5368709 5368709 5368709 5368709 5368709 5368731 5368730 5368731 5368732 5368760 5368761 5368760 5368759 5368769 5368768 5368769 5368770 5368820 5368821 5368820 5368819 5368742 5368743 5368744 5368743 5368755 5368756 5368757 5368756 5368746 5368747 5368748 5368747 999999 0 10737418 10737418 5368795 5368796 5368795 5368794 5368743 5368744 5368745 5368744 
5368709 5368709 5368709 5368709 5368709 5368709 5368709 5368709 5368709 5368709 5368709 5368709 5368709 5368709 5368709 5368730 5368729 5368730 5368731 5368759 5368760 5368759 5368758 5368768 5368767 5368768 5368769 5368819 5368820 5368819 5368818 5368741 5368742 5368743 5368742 5368754 5368755 5368756 5368755 5368745 5368746 5368747 5368746 10737418 999999 0 10737418 5368794 5368795 5368794 5368793 5368742 5368743 5368744 5368743 
5368709 5368709 5368709 5368709 5368709 5368709 5368709 5368709 5368709 5368709 5368709 5368709 5368709 5368709 5368709 5368731 5368730 5368731 5368732 5368760 5368761 5368760 5368759 5368769 5368768 5368769 5368770 5368820 5368821 5368820 5368819 5368742 5368743 5368744 5368743 5368755 5368756 5368757 5368756 5368746 5368747 5368748 5368747 10737418 10737418 999999 0 5368795 5368796 5368795 5368794 5368743 5368744 5368745 5368744 
5368709 5368709 5368709 5368709 5368709 5368709 5368709 5368709 5368709 5368709 5368709 5368709 5368709 5368709 5368709 5368732 5368731 5368732 5368733 5368761 5368762 5368761 5368760 5368770 5368769 5368770 5368771 5368821 5368822 5368821 5368820 5368743 5368744 5368745 5368744 5368756 5368757 5368758 5368757 5368747 5368748 5368749 5368748 0 10737418 10737418 999999 5368796 5368797 5368796 5368795 5368744 5368745 5368746 5368745 
5368709 5368709 5368709 5368709 5368709 5368709 5368709 5368709 5368709 5368709 5368709 5368709 5368709 5368709 5368709 5368782 5368781 5368782 5368783 5368831 5368832 5368831 5368830 5368740 5368739 5368740 5368741 5368739 5368740 5368739 5368738 5368813 5368814 5368815 5368814 5368750 5368749 5368748 5368749 5368817 5368818 5368819 5368818 5368793 5368794 5368795 5368794 999999 0 10737418 10737418 5368814 5368815 5368816 5368815 
5368709 5368709 5368709 5368709 5368709 5368709 5368709 5368709 5368709 5368709 5368709 5368709 5368709 5368709 5368709 5368783 5368782 5368783 5368784 5368832 5368833 5368832 5368831 5368741 5368740 5368741 5368742 5368740 5368741 5368740 5368739 5368814 5368815 5368816 5368815 5368751 5368750 5368749 5368750 5368818 5368819 5368820 5368819 5368794 5368795 5368796 5368795 10737418 999999 0 10737418 5368815 5368816 5368817 5368816 
5368709 5368709 5368709 5368709 5368709 5368709 5368709 5368709 5368709 5368709 5368709 5368709 5368709 5368709 5368709 5368784 5368783 5368784 5368785 5368833 5368834 5368833 5368832 5368742 5368741 5368742 5368743 5368741 5368742 5368741 5368740 5368815 5368816 5368817 5368816 5368752 5368751 5368750 5368751 5368819 5368820 5368821 5368820 5368795 5368796 5368797 5368796 10737418 10737418 999999 0 5368816 5368817 5368818 5368817 
5368709 5368709 5368709 5368709 5368709 5368709 5368709 5368709 5368709 5368709 5368709 5368709 5368709 5368709 5368709 5368783 5368782 5368783 5368784 5368832 5368833 5368832 5368831 5368741 5368740 5368741 5368742 5368740 5368741 5368740 5368739 5368814 5368815 5368816 5368815 5368751 5368750 5368749 5368750 5368818 5368819 5368820 5368819 5368794 5368795 5368796 5368795 0 10737418 10737418 999999 5368815 5368816 5368817 5368816 
5368709 5368709 5368709 5368709 5368709 5368709 5368709 5368709 5368709 5368709 5368709 5368709 5368709 5368709 5368709 5368752 5368751 5368752 5368753 5368739 5368740 5368739 5368738 5368790 5368789 5368790 5368791 5368841 5368842 5368841 5368840 5368713 5368714 5368713 5368712 5368776 5368777 5368778 5368777 5368713 5368714 5368715 5368714 5368743 5368744 5368745 5368744 5368816 5368817 5368816 5368815 999999 0 10737418 10737418 
5368709 5368709 5368709 5368709 5368709 5368709 5368709 5368709 5368709 5368709 5368709 5368709 5368709 5368709 5368709 5368751 5368750 5368751 5368752 5368738 5368739 5368738 5368737 5368789 5368788 5368789 5368790 5368840 5368841 5368840 5368839 5368712 5368713 5368712 5368711 5368775 5368776 5368777 5368776 5368714 5368715 5368716 5368715 5368742 5368743 5368744 5368743 5368815 5368816 5368815 5368814 10737418 999999 0 10737418 
5368709 5368709 5368709 5368709 5368709 5368709 5368709 5368709 5368709 5368709 5368709 5368709 5368709 5368709 5368709 5368752 5368751 5368752 5368753 5368739 5368740 5368739 5368738 5368790 5368789 5368790 5368791 5368841 5368842 5368841 5368840 5368711 5368712 5368711 5368710 5368776 5368777 5368778 5368777 5368713 5368714 5368715 5368714 5368743 5368744 5368745 5368744 5368816 5368817 5368816 5368815 10737418 10737418 999999 0 
5368709 5368709 5368709 5368709 5368709 5368709 5368709 5368709 5368709 5368709 5368709 5368709 5368709 5368709 5368709 5368753 5368752 5368753 5368754 5368740 5368741 5368740 5368739 5368791 5368790 5368791 5368792 5368842 5368843 5368842 5368841 5368712 5368713 5368712 5368711 5368777 5368778 5368779 5368778 5368712 5368713 5368714 5368713 5368744 5368745 5368746 5368745 5368817 5368818 5368817 5368816 0 10737418 10737418 999999 
EOF
